% seed = 0

mint = 15;
% maxt = 71;

nActs = 27;
dur = [0,4,2,4,1,5,2,3,4,1,5,1,4,3,5,4,4,1,3,2,5,1,2,1,2,2,0];

nSkills = 3;
sreq = [| 0,0,0,
	| 1,0,0,
	| 1,0,0,
	| 1,0,0,
	| 0,0,1,
	| 0,0,1,
	| 0,0,1,
	| 1,0,0,
	| 0,0,1,
	| 0,0,1,
	| 0,0,1,
	| 0,0,1,
	| 1,0,0,
	| 1,0,0,
	| 0,0,1,
	| 1,0,0,
	| 1,0,0,
	| 1,0,0,
	| 1,0,0,
	| 1,0,0,
	| 1,0,0,
	| 1,0,0,
	| 0,0,1,
	| 1,0,0,
	| 0,0,1,
	| 1,0,0,
	| 0,0,0, |];

% SumOfsreq = 25;

nResources = 2;
mastery = [| true,false,false,
	| false,true,true, |];

nPrecs = 90;
pred = [1,1,1,1,1,1,1,1,1,1,1,1,1,1,1,1,1,1,1,1,1,1,1,1,1,2,2,3,3,3,4,4,4,5,5,5,5,6,6,7,7,7,7,8,8,8,8,8,8,8,9,9,9,10,10,10,10,10,10,11,11,12,12,12,12,13,13,13,14,14,14,15,15,16,16,17,17,18,18,19,20,21,21,22,22,22,23,24,25,26];
succ = [2,3,4,5,6,7,8,9,10,11,12,13,14,15,16,17,18,19,20,21,22,23,24,25,26,19,27,10,27,16,18,19,27,25,27,15,8,25,27,9,10,27,25,9,12,14,16,23,26,27,10,27,23,14,20,21,22,23,27,27,24,25,26,27,23,27,14,23,26,27,20,27,16,27,20,27,23,27,20,27,27,27,24,25,27,24,27,27,27,27];

nUnrels = 214;
unpred = [2,2,2,2,2,2,2,2,2,2,2,2,2,2,2,2,2,2,2,2,2,2,2,3,3,3,3,3,3,3,3,3,3,3,3,3,4,4,4,4,4,4,4,4,4,4,4,4,4,4,4,4,4,4,4,5,5,5,5,5,5,5,6,6,6,6,6,6,6,6,6,6,6,6,6,6,6,6,6,6,6,7,7,7,7,7,7,7,7,7,8,8,8,8,8,8,9,9,9,9,9,9,9,9,10,10,10,10,10,10,10,10,11,11,11,11,11,11,11,11,11,11,11,11,11,11,12,12,12,12,12,12,12,12,12,12,12,13,13,13,13,13,13,13,13,13,14,14,14,14,14,14,14,14,14,14,15,15,15,15,15,15,15,15,15,16,16,16,16,16,16,16,16,16,17,17,17,17,17,17,17,17,18,18,18,18,18,18,18,19,19,19,19,19,19,19,20,20,20,20,20,20,21,21,21,21,22,22,23,23,23,24,24,25];
unsucc = [3,4,5,6,7,8,9,10,11,12,13,14,15,16,17,18,20,21,22,23,24,25,26,4,5,6,7,8,9,11,12,13,15,17,18,19,5,6,7,8,9,10,11,12,13,14,15,16,17,21,22,23,24,25,26,6,7,11,13,17,18,19,7,8,9,10,11,12,13,14,15,16,17,18,19,20,21,22,23,24,26,8,11,12,13,15,16,17,18,19,11,13,15,17,18,19,11,12,13,15,16,17,18,19,11,12,13,15,16,17,18,19,12,13,14,15,16,17,18,19,20,21,22,23,25,26,13,14,15,16,17,18,19,20,21,22,24,15,16,17,18,19,21,22,24,25,15,16,17,18,19,21,22,23,24,25,17,18,19,21,22,23,24,25,26,17,18,19,21,22,23,24,25,26,18,19,20,21,22,24,25,26,19,21,22,23,24,25,26,20,21,22,23,24,25,26,21,22,23,24,25,26,22,23,25,26,23,26,24,25,26,25,26,26];

USEFUL_RES = [{},
	{1},
	{1},
	{1},
	{2},
	{2},
	{2},
	{1},
	{2},
	{2},
	{2},
	{2},
	{1},
	{1},
	{2},
	{1},
	{1},
	{1},
	{1},
	{1},
	{1},
	{1},
	{2},
	{1},
	{2},
	{1},
	{}];

POTENTIAL_ACT = [{2,3,4,8,13,14,16,17,18,19,20,21,22,24,26},
	{5,6,7,9,10,11,12,15,23,25}];
